SECTION Graph
Nodes 386
Edges 653
E 2 3 5
E 3 4 5
E 4 5 5
E 5 6 5
E 6 7 5
E 7 8 5
E 8 9 5
E 9 10 5
E 10 11 5
E 11 12 5
E 12 13 5
E 13 14 5
E 14 15 5
E 15 16 5
E 17 18 5
E 19 20 5
E 20 21 5
E 21 22 5
E 22 23 5
E 1 25 13
E 2 26 13
E 3 27 13
E 4 28 13
E 6 30 13
E 7 31 13
E 9 33 13
E 10 34 13
E 11 35 13
E 12 36 13
E 13 37 13
E 14 38 13
E 16 39 13
E 17 40 13
E 18 41 13
E 19 42 13
E 21 43 13
E 22 44 13
E 23 45 13
E 24 46 13
E 26 27 5
E 27 28 5
E 28 29 5
E 29 30 5
E 30 31 5
E 31 32 5
E 32 33 5
E 33 34 5
E 34 35 5
E 35 36 5
E 36 37 5
E 37 38 5
E 40 41 5
E 43 44 5
E 44 45 5
E 25 48 13
E 26 50 13
E 27 51 13
E 28 52 13
E 29 53 13
E 30 54 13
E 31 55 13
E 32 56 13
E 33 57 13
E 34 58 13
E 35 59 13
E 36 60 13
E 38 62 13
E 39 63 13
E 40 65 13
E 41 66 13
E 42 68 13
E 43 69 13
E 44 70 13
E 45 71 13
E 46 73 13
E 47 48 5
E 48 49 5
E 49 50 5
E 50 51 5
E 51 52 5
E 52 53 5
E 53 54 5
E 54 55 5
E 55 56 5
E 56 57 5
E 57 58 5
E 58 59 5
E 59 60 5
E 60 61 5
E 61 62 5
E 63 64 5
E 64 65 5
E 65 66 5
E 66 67 5
E 67 68 5
E 69 70 5
E 70 71 5
E 71 72 5
E 72 73 5
E 47 74 13
E 48 75 13
E 49 76 13
E 50 77 13
E 52 79 13
E 54 81 13
E 55 82 13
E 56 83 13
E 58 85 13
E 59 86 13
E 60 87 13
E 61 88 13
E 62 89 13
E 63 91 13
E 64 92 13
E 65 93 13
E 66 94 13
E 67 95 13
E 68 96 13
E 69 98 13
E 70 99 13
E 71 100 13
E 72 101 13
E 73 102 13
E 74 75 5
E 75 76 5
E 76 77 5
E 77 78 5
E 78 79 5
E 79 80 5
E 80 81 5
E 81 82 5
E 82 83 5
E 83 84 5
E 84 85 5
E 85 86 5
E 86 87 5
E 87 88 5
E 88 89 5
E 89 90 5
E 90 91 5
E 91 92 5
E 92 93 5
E 93 94 5
E 94 95 5
E 95 96 5
E 96 97 5
E 97 98 5
E 98 99 5
E 99 100 5
E 100 101 5
E 101 102 5
E 74 103 13
E 75 104 13
E 76 105 13
E 77 106 13
E 78 107 13
E 79 108 13
E 80 109 13
E 81 110 13
E 82 111 13
E 83 112 13
E 84 113 13
E 85 114 13
E 86 115 13
E 87 116 13
E 89 118 13
E 90 119 13
E 91 120 13
E 92 121 13
E 93 122 13
E 95 123 13
E 96 124 13
E 97 125 13
E 98 126 13
E 99 127 13
E 100 128 13
E 102 130 13
E 103 104 5
E 104 105 5
E 105 106 5
E 106 107 5
E 107 108 5
E 108 109 5
E 109 110 5
E 110 111 5
E 111 112 5
E 112 113 5
E 113 114 5
E 114 115 5
E 115 116 5
E 116 117 5
E 117 118 5
E 118 119 5
E 119 120 5
E 120 121 5
E 121 122 5
E 123 124 5
E 124 125 5
E 125 126 5
E 126 127 5
E 127 128 5
E 128 129 5
E 129 130 5
E 103 131 13
E 104 132 13
E 106 133 13
E 107 134 13
E 108 135 13
E 110 137 13
E 112 139 13
E 113 140 13
E 114 141 13
E 115 142 13
E 116 143 13
E 117 144 13
E 118 145 13
E 119 146 13
E 120 147 13
E 121 148 13
E 122 149 13
E 123 150 13
E 126 153 13
E 127 154 13
E 128 155 13
E 129 156 13
E 130 157 13
E 131 132 5
E 133 134 5
E 134 135 5
E 135 136 5
E 136 137 5
E 137 138 5
E 138 139 5
E 139 140 5
E 140 141 5
E 141 142 5
E 142 143 5
E 143 144 5
E 144 145 5
E 145 146 5
E 146 147 5
E 147 148 5
E 148 149 5
E 150 151 5
E 151 152 5
E 152 153 5
E 153 154 5
E 154 155 5
E 155 156 5
E 156 157 5
E 131 158 13
E 132 159 13
E 133 160 13
E 134 161 13
E 135 162 13
E 136 163 13
E 137 164 13
E 138 165 13
E 139 166 13
E 140 167 13
E 141 168 13
E 143 169 13
E 146 170 13
E 147 171 13
E 148 172 13
E 149 173 13
E 150 175 13
E 151 176 13
E 152 177 13
E 153 178 13
E 154 179 13
E 155 180 13
E 157 182 13
E 158 159 5
E 160 161 5
E 161 162 5
E 162 163 5
E 163 164 5
E 164 165 5
E 165 166 5
E 166 167 5
E 167 168 5
E 170 171 5
E 171 172 5
E 172 173 5
E 173 174 5
E 174 175 5
E 175 176 5
E 176 177 5
E 177 178 5
E 178 179 5
E 179 180 5
E 180 181 5
E 181 182 5
E 158 183 13
E 159 184 13
E 160 186 13
E 161 187 13
E 162 188 13
E 165 191 13
E 166 192 13
E 167 193 13
E 168 194 13
E 169 195 13
E 170 196 13
E 171 197 13
E 172 198 13
E 173 199 13
E 174 200 13
E 175 201 13
E 176 202 13
E 178 203 13
E 179 204 13
E 180 205 13
E 181 206 13
E 182 207 13
E 183 184 5
E 184 185 5
E 185 186 5
E 186 187 5
E 187 188 5
E 188 189 5
E 189 190 5
E 190 191 5
E 191 192 5
E 192 193 5
E 193 194 5
E 196 197 5
E 197 198 5
E 198 199 5
E 199 200 5
E 200 201 5
E 201 202 5
E 203 204 5
E 204 205 5
E 205 206 5
E 206 207 5
E 183 208 13
E 184 209 13
E 185 210 13
E 186 211 13
E 187 212 13
E 188 213 13
E 189 214 13
E 190 215 13
E 191 216 13
E 192 217 13
E 193 218 13
E 194 219 13
E 195 221 13
E 196 224 13
E 197 225 13
E 198 226 13
E 199 227 13
E 201 228 13
E 202 229 13
E 203 230 13
E 204 231 13
E 205 232 13
E 207 234 13
E 208 209 5
E 209 210 5
E 210 211 5
E 211 212 5
E 212 213 5
E 213 214 5
E 214 215 5
E 215 216 5
E 216 217 5
E 217 218 5
E 218 219 5
E 219 220 5
E 220 221 5
E 221 222 5
E 222 223 5
E 223 224 5
E 224 225 5
E 225 226 5
E 226 227 5
E 228 229 5
E 230 231 5
E 231 232 5
E 232 233 5
E 233 234 5
E 210 237 13
E 211 238 13
E 212 239 13
E 213 240 13
E 214 241 13
E 215 242 13
E 216 243 13
E 217 244 13
E 218 245 13
E 219 246 13
E 220 247 13
E 221 248 13
E 222 249 13
E 223 250 13
E 224 251 13
E 225 252 13
E 226 253 13
E 227 254 13
E 228 255 13
E 229 256 13
E 230 258 13
E 231 259 13
E 232 260 13
E 233 261 13
E 234 262 13
E 235 236 5
E 236 237 5
E 237 238 5
E 238 239 5
E 239 240 5
E 240 241 5
E 241 242 5
E 242 243 5
E 243 244 5
E 244 245 5
E 245 246 5
E 246 247 5
E 247 248 5
E 248 249 5
E 249 250 5
E 250 251 5
E 251 252 5
E 252 253 5
E 253 254 5
E 255 256 5
E 256 257 5
E 257 258 5
E 258 259 5
E 259 260 5
E 260 261 5
E 261 262 5
E 236 263 13
E 239 264 13
E 240 265 13
E 241 266 13
E 242 267 13
E 243 268 13
E 244 269 13
E 246 270 13
E 248 271 13
E 249 272 13
E 250 273 13
E 253 276 13
E 254 277 13
E 255 279 13
E 256 280 13
E 257 281 13
E 258 282 13
E 259 283 13
E 260 284 13
E 261 285 13
E 262 286 13
E 264 265 5
E 265 266 5
E 266 267 5
E 267 268 5
E 268 269 5
E 271 272 5
E 272 273 5
E 273 274 5
E 274 275 5
E 275 276 5
E 276 277 5
E 277 278 5
E 278 279 5
E 279 280 5
E 280 281 5
E 281 282 5
E 282 283 5
E 283 284 5
E 284 285 5
E 285 286 5
E 263 287 13
E 264 288 13
E 265 289 13
E 268 290 13
E 269 291 13
E 270 292 13
E 271 293 13
E 272 294 13
E 273 295 13
E 274 296 13
E 275 297 13
E 276 298 13
E 277 299 13
E 278 300 13
E 279 301 13
E 280 302 13
E 281 303 13
E 282 304 13
E 283 305 13
E 284 306 13
E 285 307 13
E 286 308 13
E 288 289 5
E 290 291 5
E 293 294 5
E 294 295 5
E 295 296 5
E 296 297 5
E 297 298 5
E 298 299 5
E 299 300 5
E 300 301 5
E 301 302 5
E 302 303 5
E 303 304 5
E 304 305 5
E 305 306 5
E 306 307 5
E 307 308 5
E 287 310 13
E 288 313 13
E 289 314 13
E 290 315 13
E 291 316 13
E 292 318 13
E 293 320 13
E 294 321 13
E 295 322 13
E 296 323 13
E 297 324 13
E 298 325 13
E 299 326 13
E 301 327 13
E 303 329 13
E 304 330 13
E 305 331 13
E 306 332 13
E 307 333 13
E 308 334 13
E 309 310 5
E 310 311 5
E 311 312 5
E 312 313 5
E 313 314 5
E 315 316 5
E 316 317 5
E 317 318 5
E 318 319 5
E 319 320 5
E 320 321 5
E 321 322 5
E 322 323 5
E 323 324 5
E 324 325 5
E 325 326 5
E 327 328 5
E 328 329 5
E 329 330 5
E 330 331 5
E 331 332 5
E 332 333 5
E 333 334 5
E 309 335 13
E 310 336 13
E 311 337 13
E 312 338 13
E 313 339 13
E 314 340 13
E 315 343 13
E 316 344 13
E 317 345 13
E 318 346 13
E 319 347 13
E 320 348 13
E 323 349 13
E 324 350 13
E 325 351 13
E 326 352 13
E 327 353 13
E 328 354 13
E 329 355 13
E 330 356 13
E 331 357 13
E 332 358 13
E 333 359 13
E 334 360 13
E 335 336 5
E 336 337 5
E 337 338 5
E 338 339 5
E 339 340 5
E 340 341 5
E 341 342 5
E 342 343 5
E 343 344 5
E 344 345 5
E 345 346 5
E 346 347 5
E 347 348 5
E 349 350 5
E 350 351 5
E 351 352 5
E 353 354 5
E 354 355 5
E 355 356 5
E 356 357 5
E 357 358 5
E 358 359 5
E 359 360 5
E 335 361 13
E 336 362 13
E 337 363 13
E 338 364 13
E 339 365 13
E 340 366 13
E 341 367 13
E 342 368 13
E 343 369 13
E 344 370 13
E 345 371 13
E 346 372 13
E 347 373 13
E 348 374 13
E 349 375 13
E 350 376 13
E 351 377 13
E 352 378 13
E 353 380 13
E 354 381 13
E 355 382 13
E 357 383 13
E 358 384 13
E 359 385 13
E 360 386 13
E 361 362 5
E 362 363 5
E 363 364 5
E 364 365 5
E 365 366 5
E 366 367 5
E 367 368 5
E 368 369 5
E 369 370 5
E 370 371 5
E 371 372 5
E 372 373 5
E 373 374 5
E 375 376 5
E 376 377 5
E 377 378 5
E 378 379 5
E 379 380 5
E 380 381 5
E 381 382 5
E 383 384 5
E 384 385 5
E 385 386 5
END

SECTION Terminals
Terminals 12
T 11
T 30
T 36
T 65
T 74
T 85
T 87
T 99
T 100
T 106
T 155
T 350
END

EOF
